============================[ Problem Statistics ]=============================|                                                                             ||  Number of variables:          4242                                         ||  Number of clauses:           10197                                         ||  Parse time:                   0.59 s                                       ||                                                                             |============================[ Search Statistics ]==============================| Conflicts |          ORIGINAL         |          LEARNT          | Progress ||           |    Vars  Clauses Literals |    Limit  Clauses Lit/Cl |          |===============================================================================|       100 |    1591     6402   932983 |     2347      100     53 | 62.501 % ||       250 |    1591     6402   932983 |     2582      250     75 | 62.495 % |===============================================================================restarts              : 3conflicts             : 323            (362 /sec)decisions             : 588            (0.00 % random) (659 /sec)propagations          : 11898          (13339 /sec)conflict literals     : 25858          (94.68 % deleted)CPU time              : 0.892 sSATISFIABLE